set I := 0 1 2 3 4 5 6 7 8 9 10 11 12 13 14 15 16 17 18 19 20 21 22 23 24;

param cap := 150;

param: size:=
    0 100
    1 97
    2 92
    3 90
    4 88
    5 84
    6 81
    7 78
    8 75
    9 71
    10 67
    11 65
    12 62
    13 59
    14 57
    15 54
    16 51
    17 46
    18 43
    19 40
    20 37
    21 34
    22 30
    23 27
    24 22;
